Route #1: 28 12 40 53
Route #2: 27 69 76 50 1
Route #3: 95 98 99 6 94
Route #4: 21 73 41 26 54
Route #5: 52 18 84 96
Route #6: 31 88 7 10
Route #7: 2 87 57 97
Route #8: 83 82 8 60 89
Route #9: 30 51 81 34 24 25
Route #10: 5 61 85 37
Route #11: 39 23 67 55 4
Route #12: 63 62 11 90 20 32 70
Route #13: 72 75 22 56 74 58
Route #14: 45 47 19 46 17
Route #15: 33 29 79 78 3 68 80
Route #16: 92 42 15 38 43 13
Route #17: 59 14 44 16 86 91 100 93
Route #18: 65 71 9 66 35 77
Route #19: 36 64 49 48
Cost 350523.22